(set-option :produce-models true)
(set-logic QF_UF)
(declare-fun p52() Bool)
(declare-fun p61() Bool)
(declare-fun p112() Bool)
(declare-fun p44() Bool)
(declare-fun p93() Bool)
(declare-fun p49() Bool)
(declare-fun p85() Bool)
(declare-fun p84() Bool)
(declare-fun p101() Bool)
(declare-fun p62() Bool)
(declare-fun p53() Bool)
(declare-fun p4() Bool)
(declare-fun p111() Bool)
(declare-fun p39() Bool)
(declare-fun p28() Bool)
(declare-fun p46() Bool)
(declare-fun p100() Bool)
(declare-fun p70() Bool)
(declare-fun p8() Bool)
(declare-fun p67() Bool)
(declare-fun p65() Bool)
(declare-fun p118() Bool)
(declare-fun p42() Bool)
(declare-fun p116() Bool)
(declare-fun p114() Bool)
(declare-fun p72() Bool)
(declare-fun p95() Bool)
(declare-fun p60() Bool)
(declare-fun p23() Bool)
(declare-fun p99() Bool)
(declare-fun p103() Bool)
(declare-fun p98() Bool)
(declare-fun p87() Bool)
(declare-fun p119() Bool)
(declare-fun p59() Bool)
(declare-fun p31() Bool)
(declare-fun p83() Bool)
(declare-fun p40() Bool)
(declare-fun p35() Bool)
(declare-fun p78() Bool)
(declare-fun p50() Bool)
(declare-fun p13() Bool)
(declare-fun p15() Bool)
(declare-fun p54() Bool)
(declare-fun p86() Bool)
(declare-fun p25() Bool)
(declare-fun p1() Bool)
(declare-fun p12() Bool)
(declare-fun p34() Bool)
(declare-fun p96() Bool)
(declare-fun p90() Bool)
(declare-fun p36() Bool)
(declare-fun p107() Bool)
(declare-fun p7() Bool)
(declare-fun p9() Bool)
(declare-fun p106() Bool)
(declare-fun p77() Bool)
(declare-fun p88() Bool)
(declare-fun p97() Bool)
(declare-fun p115() Bool)
(declare-fun p48() Bool)
(declare-fun p18() Bool)
(declare-fun p63() Bool)
(declare-fun p32() Bool)
(declare-fun p89() Bool)
(declare-fun p92() Bool)
(declare-fun p19() Bool)
(declare-fun p56() Bool)
(declare-fun p110() Bool)
(declare-fun p74() Bool)
(declare-fun p17() Bool)
(declare-fun p20() Bool)
(declare-fun p113() Bool)
(declare-fun p64() Bool)
(declare-fun p81() Bool)
(declare-fun p11() Bool)
(declare-fun p71() Bool)
(declare-fun p47() Bool)
(declare-fun p73() Bool)
(declare-fun p79() Bool)
(declare-fun p16() Bool)
(declare-fun p33() Bool)
(declare-fun p5() Bool)
(declare-fun p117() Bool)
(declare-fun p10() Bool)
(declare-fun p82() Bool)
(declare-fun p29() Bool)
(declare-fun p2() Bool)
(declare-fun p108() Bool)
(declare-fun p0() Bool)
(declare-fun p57() Bool)
(declare-fun p68() Bool)
(declare-fun p109() Bool)
(declare-fun p75() Bool)
(declare-fun p41() Bool)
(declare-fun p14() Bool)
(declare-fun p6() Bool)
(declare-fun p21() Bool)
(declare-fun p91() Bool)
(declare-fun p105() Bool)
(declare-fun p30() Bool)
(declare-fun p66() Bool)
(declare-fun p45() Bool)
(declare-fun p22() Bool)
(declare-fun p80() Bool)
(declare-fun p27() Bool)
(declare-fun p43() Bool)
(declare-fun p51() Bool)
(declare-fun p37() Bool)
(declare-fun p55() Bool)
(declare-fun p94() Bool)
(declare-fun p38() Bool)
(declare-fun p76() Bool)
(declare-fun p26() Bool)
(declare-fun p102() Bool)
(declare-fun p24() Bool)
(declare-fun p69() Bool)
(declare-fun p58() Bool)
(declare-fun p3() Bool)
(declare-fun p104() Bool)
(assert
(and (or p52 p61 (not p112)) (or (not p44) (not p93) p49) (or (not p85) p84 p101) (or p52 p62 p53) (or p4 (not p111) (not p39)) (or p112 p28 p46) (or (not p100) (not p70) (not p8)) (or p67 p85 p65) (or p118 (not p42) (not p116)) (or (not p52) (not p53) (not p114)) (or p72 p95 (not p60)) (or (not p23) (not p99) (not p103)) (or (not p98) p87 p119) (or (not p59) p101 (not p85)) (or (not p31) p83 p4) (or p40 (not p35) p111) (or (not p103) p78 (not p50)) (or p78 p50 p13) (or (not p15) (not p54) p86) (or p25 (not p1) p86) (or (not p86) p12 p34) (or (not p96) p90 p85) (or p36 (not p107) (not p7)) (or (not p9) (not p9) (not p119)) (or p106 (not p77) p88) (or (not p97) p77 (not p115)) (or (not p48) (not p18) (not p98)) (or p12 (not p67) (not p63)) (or p54 (not p32) p116) (or p83 (not p99) (not p34)) (or (not p100) p7 p118) (or (not p84) p52 (not p36)) (or p7 (not p89) (not p65)) (or p92 p19 (not p56)) (or (not p28) (not p54) (not p62)) (or (not p110) (not p84) (not p74)) (or (not p17) p25 (not p20)) (or p113 p64 p61) (or (not p81) p11 p107) (or p115 (not p71) p83) (or (not p47) (not p73) (not p79)) (or p59 (not p16) (not p33)) (or (not p7) (not p5) p13) (or (not p117) (not p10) p17) (or p82 p29 (not p2)) (or (not p88) p108 p0) (or p110 (not p83) (not p57)) (or (not p11) p68 p2) (or (not p98) p4 p97) (or p112 p118 (not p117)) (or (not p109) p15 p75) (or p82 p119 p63) (or (not p114) p62 p81) (or (not p10) (not p99) (not p8)) (or (not p73) p32 (not p44)) (or (not p41) (not p113) (not p74)) (or (not p14) p6 p36) (or (not p107) p29 (not p21)) (or (not p77) (not p116) (not p70)) (or (not p47) (not p91) p11) (or (not p105) (not p30) (not p109)) (or p67 p84 (not p66)) (or p59 p35 (not p11)) (or (not p4) (not p45) p22) (or p18 (not p0) (not p93)) (or p67 p114 p28) (or p40 p87 p117) (or p42 p11 (not p59)) (or p4 p114 p108) (or p14 p88 p87) (or (not p61) (not p111) (not p80)) (or p22 (not p89) p50) (or p53 p83 (not p83)) (or p75 p25 (not p0)) (or p97 (not p27) p43) (or (not p48) (not p14) p34) (or (not p118) p89 p63) (or p21 (not p89) (not p97)) (or (not p52) (not p10) p29) (or (not p51) p15 p45) (or (not p66) p52 p9) (or (not p47) (not p50) p48) (or (not p13) (not p79) (not p28)) (or p91 (not p83) p27) (or (not p34) (not p12) p112) (or p111 (not p13) p37) (or p37 (not p11) (not p71)) (or p33 p55 (not p8)) (or (not p21) p103 p40) (or p6 (not p112) p29) (or (not p36) p84 (not p93)) (or p85 p117 (not p51)) (or (not p94) (not p95) (not p4)) (or (not p48) (not p65) (not p39)) (or p79 (not p19) p6) (or (not p63) (not p85) p38) (or (not p14) (not p31) (not p15)) (or (not p54) p46 p99) (or p77 p84 p118) (or p90 (not p8) p116) (or (not p65) p101 (not p66)) (or (not p21) (not p71) p89) (or p95 (not p71) (not p9)) (or (not p79) p109 (not p90)) (or (not p68) (not p19) p78) (or p99 (not p2) p13) (or p60 p76 (not p106)) (or p67 (not p114) p93) (or p28 (not p87) p65) (or (not p118) (not p81) p29) (or (not p118) p91 p37) (or p117 (not p96) p101) (or (not p66) p26 p117) (or p8 (not p106) p84) (or p85 (not p18) p4) (or p94 p75 p52) (or p106 (not p100) (not p28)) (or (not p99) p28 (not p7)) (or p107 p111 (not p94)) (or (not p6) p93 p6) (or p60 p93 (not p40)) (or p84 (not p66) (not p41)) (or (not p33) p101 p10) (or (not p56) p102 (not p13)) (or (not p114) (not p64) (not p87)) (or (not p24) (not p78) p117) (or p77 p117 (not p98)) (or p74 p66 (not p56)) (or (not p32) (not p82) (not p93)) (or (not p24) (not p20) p63) (or (not p71) (not p42) (not p20)) (or p68 p22 (not p48)) (or p67 p112 (not p90)) (or (not p65) (not p41) p95) (or (not p112) p95 p76) (or p51 (not p64) (not p88)) (or p8 p30 (not p90)) (or (not p76) (not p47) (not p67)) (or (not p66) (not p20) (not p21)) (or p10 (not p90) (not p71)) (or (not p6) p43 p4) (or p23 (not p111) p7) (or p63 (not p115) (not p53)) (or p69 (not p107) (not p100)) (or (not p22) p88 (not p50)) (or (not p54) p50 p4) (or (not p48) p58 (not p47)) (or p73 p114 (not p78)) (or (not p30) (not p17) (not p119)) (or (not p82) (not p76) (not p82)) (or (not p71) (not p41) p3) (or p20 (not p72) p110) (or p69 p20 p72) (or p84 (not p118) p68) (or (not p72) p60 p106) (or p46 p9 (not p11)) (or (not p18) (not p118) p17) (or p77 (not p32) (not p22)) (or (not p17) (not p11) p101) (or p105 p86 (not p80)) (or p45 (not p36) p73) (or p93 p88 p37) (or p58 (not p84) (not p108)) (or p51 p34 (not p60)) (or p119 (not p78) p64) (or p38 p106 p99) (or p47 p35 p20) (or p102 (not p86) (not p6)) (or p102 p119 (not p108)) (or (not p68) (not p21) p5) (or (not p1) (not p56) (not p32)) (or (not p73) (not p43) p12) (or (not p33) (not p1) (not p84)) (or (not p107) p79 p4) (or p100 p38 (not p10)) (or (not p30) (not p116) p104) (or (not p2) (not p45) (not p60)) (or p86 p93 (not p59)) (or (not p106) (not p61) (not p58)) (or (not p95) p85 p71) (or (not p90) p31 p79) (or p71 (not p25) (not p43)) (or p110 p94 (not p20)) (or p87 (not p116) p102) (or (not p110) p7 (not p59)) (or (not p96) (not p89) (not p57)) (or p45 p4 p24) (or p1 (not p42) (not p73)) (or p47 (not p43) p95) (or (not p92) (not p41) (not p0)) (or p62 (not p90) p114) (or p40 (not p102) (not p58)) (or p49 (not p18) p56) (or p2 p6 (not p65)) (or (not p90) (not p7) p73) (or (not p59) (not p46) (not p108)) (or p41 (not p115) p73) (or (not p63) p55 p67) (or (not p45) (not p110) p4) (or p59 p27 p18) (or (not p49) p3 (not p8)) (or (not p55) (not p8) (not p49)) (or p75 (not p43) (not p112)) (or p4 (not p40) p39) (or p57 (not p45) p78) (or (not p24) p93 p46) (or p24 (not p88) p94) (or p69 (not p62) p68) (or p75 p35 p39) (or p75 (not p16) (not p79)) (or p111 (not p118) p9) (or (not p108) (not p23) p73) (or p97 p34 p48) (or (not p64) (not p96) (not p94)) (or p44 p47 (not p68)) (or (not p50) p93 (not p40)) (or (not p75) (not p3) (not p47)) (or (not p4) p95 p85) (or p60 p97 (not p17)) (or (not p15) p62 (not p44)) (or p80 p69 p76) (or p41 (not p15) (not p63)) (or p89 p69 p53) (or (not p2) (not p38) (not p66)) (or (not p54) p63 (not p61)) (or (not p66) (not p97) p23) (or (not p75) p110 p32) (or (not p112) p105 (not p107)) (or (not p37) (not p83) (not p24)) (or (not p114) p42 p11) (or p89 (not p109) (not p66)) (or (not p111) (not p27) (not p47)) (or p62 p102 p42) (or (not p104) (not p116) p97) (or (not p110) (not p57) (not p65)) (or (not p63) (not p94) p78) (or (not p81) p35 p28) (or p41 p13 (not p4)) (or p96 p117 p110) (or p29 p71 (not p20)) (or p68 p22 (not p46)) (or (not p89) p23 (not p82)) (or p115 p57 p79) (or p69 (not p45) p104) (or (not p56) (not p29) p84) (or p103 (not p59) p85) (or p84 (not p27) (not p86)) (or p17 (not p111) p34) (or (not p46) p75 (not p94)) (or (not p77) (not p100) (not p45)) (or p1 p31 (not p64)) (or (not p51) (not p96) p112) (or p55 (not p6) p4) (or p72 p60 (not p62)) (or (not p37) (not p82) (not p50)) (or (not p100) p10 p69) (or (not p90) p88 p102) (or p74 (not p78) (not p107)) (or p41 p101 (not p52)) (or (not p23) p109 p94) (or p94 (not p105) (not p25)) (or (not p9) (not p81) (not p78)) (or p5 (not p100) (not p9)) (or (not p46) p90 (not p89)) (or p104 (not p3) p117) (or (not p51) (not p100) p98) (or p5 p54 (not p54)) (or (not p71) p64 p26) (or p70 (not p111) (not p101)) (or p97 (not p43) (not p103)) (or (not p23) (not p8) p7) (or (not p99) p65 (not p116)) (or (not p10) p91 (not p39)) (or p45 (not p101) p10) (or (not p26) (not p27) p32) (or (not p108) p114 (not p1)) (or p35 (not p30) (not p25)) (or (not p57) (not p48) (not p54)) (or p58 (not p12) p80) (or (not p74) (not p29) (not p55)) (or p29 (not p20) p85) (or (not p62) p3 (not p51)) (or p64 (not p11) (not p66)) (or (not p25) (not p101) p41) (or p10 (not p4) (not p51)) (or p37 p62 p105) (or p54 p3 p45) (or (not p9) p54 (not p22)) (or p64 p88 (not p21)) (or p5 (not p97) (not p112)) (or (not p8) p32 (not p82)) (or (not p26) (not p70) (not p0)) (or (not p50) (not p83) p88) (or p33 (not p7) p40) (or (not p29) p119 p116) (or (not p27) p99 (not p44)) (or (not p3) p102 (not p111)) (or p45 p29 p80) (or (not p83) p79 p91) (or (not p111) p34 p98) (or (not p77) (not p77) (not p34)) (or (not p77) p92 p69) (or p10 p86 (not p99)) (or (not p83) (not p65) p104) (or (not p79) (not p118) (not p52)) (or (not p66) p31 p113) (or (not p24) (not p15) p97) (or (not p15) (not p90) (not p112)) (or (not p86) p64 p98) (or p99 p34 p109) (or p100 p56 p29) (or (not p87) p5 p76) (or p75 (not p105) p55) (or (not p59) (not p32) (not p116)) (or p85 p63 p26) (or (not p101) p88 p42) (or p19 p17 p78) (or (not p76) p88 p53) (or (not p50) (not p69) (not p1)) (or p110 (not p101) p97) (or (not p76) (not p84) (not p79)) (or p103 p117 (not p116)) (or p28 p115 (not p94)) (or (not p7) p16 p79) (or p91 p28 p42) (or p110 p40 (not p86)) (or (not p118) (not p58) (not p33)) (or p83 p52 (not p44)) (or p83 (not p68) (not p82)) (or (not p97) p98 (not p71)) (or p70 p7 (not p118)) (or p59 (not p1) p56) (or p55 p65 (not p9)) (or (not p74) (not p50) p82) (or (not p44) p51 p119) (or p65 (not p20) (not p101)) (or p49 p50 p114) (or p45 (not p96) p76) (or p113 (not p17) p46) (or (not p9) (not p114) (not p33)) (or p12 p7 (not p76)) (or (not p63) p77 p109) (or p27 (not p104) p73) (or p85 (not p10) (not p99)) (or (not p61) (not p39) p66) (or p97 p48 (not p60)) (or (not p13) p58 (not p93)) (or (not p4) (not p94) p96) (or (not p46) p43 p7) (or (not p113) p39 p13) (or p2 (not p36) p4) (or p39 p101 (not p34)) (or (not p27) p87 p0) (or p53 p47 (not p42)) (or (not p1) (not p35) p2) (or (not p33) (not p96) p37) (or (not p94) (not p72) p42) (or p5 p112 p67) (or p59 p104 (not p3)) (or p66 (not p63) (not p6)) (or (not p116) p9 (not p11)) (or (not p52) (not p104) (not p67)) (or (not p73) p34 p88) (or p111 p16 (not p32)) (or (not p115) (not p55) p53) (or p74 (not p11) (not p1)) (or (not p18) (not p35) (not p32)) (or p0 (not p28) (not p109)) (or p44 (not p19) p36) (or (not p25) p5 (not p39)) (or (not p97) (not p45) p2) (or (not p110) p53 (not p55)) (or (not p90) p95 p89) (or (not p10) p29 p74) (or p37 (not p75) p96) (or p111 p103 (not p57)) (or p45 p97 p88) (or (not p115) p39 (not p111)) (or (not p98) p69 (not p22)) (or (not p40) (not p18) (not p102)) (or (not p73) p100 (not p77)) (or p119 p37 p78) (or (not p28) p43 (not p113)) (or p64 p25 (not p5)) (or (not p72) p14 (not p75)) (or (not p114) (not p58) p93) (or p51 p91 p85) (or (not p36) p114 (not p62)) (or p6 (not p19) (not p69)) (or p96 (not p75) (not p68)) (or p105 p78 p110) (or (not p51) p114 (not p36)) (or p27 (not p112) p37) (or (not p1) (not p19) (not p24)) (or (not p40) p117 p55) (or p63 p52 (not p32)) (or (not p76) p19 (not p42)) (or (not p74) (not p10) (not p70)) (or p88 p17 (not p112)) (or (not p53) (not p94) (not p78)) (or (not p74) (not p86) p64) (or (not p18) (not p66) (not p78)) (or (not p29) (not p56) p106) (or (not p26) p88 p103) (or p21 (not p20) (not p55)) (or p0 p31 (not p1)) (or (not p14) p60 (not p93)) (or p2 p81 p35) (or p17 p92 (not p6)) (or p118 (not p17) p16) (or (not p17) (not p62) (not p90)) (or (not p71) p40 p106) (or (not p54) (not p26) p113) (or p4 p80 p83) (or p108 (not p72) (not p12)) (or p100 p84 (not p78)) (or (not p71) p100 (not p109)) (or (not p75) p11 (not p115)) (or (not p38) p96 p113) (or p28 (not p88) p119) (or (not p57) p9 p21) (or (not p35) p118 p108) (or (not p108) p112 p62) (or (not p83) (not p47) (not p92)) (or p51 (not p29) p46) (or (not p92) p79 (not p50)) (or p70 p19 p47) (or (not p103) p40 (not p42)) (or (not p69) p9 p109) (or p102 (not p59) p102) (or p113 p98 (not p101)) (or p11 p14 (not p27)) (or p9 p79 p16) (or (not p5) (not p11) p45) (or (not p15) (not p117) (not p33)) (or (not p97) (not p94) (not p13)) (or (not p110) p34 p114) (or p60 (not p117) (not p5)) (or p10 (not p22) (not p38)) (or p34 (not p53) (not p68)) (or (not p85) (not p59) p24) (or (not p93) (not p105) p13) (or (not p55) (not p80) (not p13)) (or p36 p93 p85) (or p107 p80 (not p1)) (or (not p74) p10 (not p56)) (or (not p14) p85 (not p41)) (or p48 (not p35) (not p90)) (or (not p84) (not p102) p115) (or (not p99) p102 p110) (or p78 (not p100) p74) (or (not p37) p1 (not p116)) (or p49 p110 (not p112)) (or p92 p91 (not p111)) (or p71 p18 p103) (or (not p69) (not p99) p1) (or (not p25) (not p53) p64) (or p2 p111 (not p116)) (or p89 p40 (not p59)) (or (not p116) (not p104) (not p10)) (or p67 (not p61) (not p17)) (or p42 p99 p20) (or p41 (not p74) p25) (or p79 p103 (not p24)) (or p68 p9 p57) (or (not p61) (not p59) p39) (or (not p44) p9 (not p20)) (or (not p87) (not p43) (not p20)) (or (not p36) (not p117) p92) (or p116 p5 (not p115)) (or (not p99) p22 (not p78)) (or (not p2) (not p5) p16) (or (not p11) (not p43) (not p113)) (or p84 (not p84) p113) (or (not p22) p111 (not p90)) (or p107 p100 p118) (or (not p49) p57 (not p88)) (or (not p39) p9 (not p74)) (or p20 p95 (not p76)) (or (not p95) (not p51) p11) (or (not p60) (not p32) p118) (or (not p94) (not p23) (not p59)) (or (not p56) (not p29) p13) (or (not p36) (not p78) (not p57)) (or p83 (not p62) (not p73)) (or (not p62) (not p48) p90) (or (not p30) p39 p85) (or (not p31) p66 p7) (or p79 (not p100) p80) (or p22 (not p16) p68) (or p108 (not p24) p112) (or p8 p65 p6) (or (not p66) p11 (not p26)) (or (not p42) p108 (not p76)) (or (not p78) p93 p26) (or (not p85) (not p71) (not p73)) (or p23 p33 (not p23)) (or (not p95) p111 p106) (or p24 (not p118) (not p6)) (or p105 (not p20) p17) (or p73 p113 (not p19)) (or (not p83) p114 p110) (or (not p96) p64 p41) (or p103 (not p30) p35) (or p57 p104 p31) (or (not p112) p14 (not p79)) (or (not p75) p95 (not p62)) (or (not p48) (not p9) (not p103)) (or (not p87) p59 (not p26)) (or p13 p0 p92) (or (not p77) p113 (not p58)) (or (not p110) p102 p119) (or p82 p37 p29) (or (not p41) p1 p118) (or p110 p63 p118) (or p76 (not p77) p105) (or (not p75) (not p118) p93) (or (not p45) p56 p16) (or (not p103) p68 p60) (or p42 (not p80) p90) (or (not p83) p77 p105) (or p76 (not p29) p36) (or (not p59) p88 p82) (or p113 p30 p88) (or p117 (not p64) (not p36)) (or p105 (not p52) (not p83)) (or (not p97) (not p55) p99) (or (not p104) (not p9) (not p27)) (or p15 p66 p69) (or p38 p82 p1) (or (not p0) p2 p100) (or (not p2) p28 p47) (or (not p106) p19 (not p106)) (or p84 p104 (not p66)) (or p83 (not p56) p75) (or p109 p108 p81) (or (not p114) p101 (not p36)) (or (not p44) p106 (not p101)) (or (not p35) (not p21) p36) (or p88 (not p33) (not p13)) (or (not p16) (not p97) (not p84)) (or (not p105) (not p3) (not p67)) (or (not p43) (not p97) (not p93)) (or p97 (not p17) p41) (or p50 p113 p34) (or (not p87) (not p113) p27) (or p101 p36 p8) (or p88 (not p10) (not p81)) (or (not p4) p16 (not p55)) (or p28 (not p79) (not p62)) (or p19 p69 p112) (or p117 p49 (not p119)) (or (not p96) p69 p113) (or (not p25) (not p3) (not p66)) (or (not p82) p3 (not p11)) (or p98 (not p68) (not p68)) (or p18 p14 p76) (or (not p45) p37 (not p69)) (or (not p56) (not p67) (not p95)) (or (not p5) (not p112) p48) (or p63 (not p65) p1) (or p39 p41 (not p15)) (or p78 (not p0) p25) (or p69 p80 (not p75)) (or p67 (not p61) (not p70)) (or p93 (not p99) (not p76)) (or (not p64) (not p65) (not p64)) (or p24 p91 (not p23)) (or p90 p30 (not p5)) (or p5 p69 p85) (or p56 p100 p112) (or (not p93) p8 (not p83)) (or p95 p119 p0) (or (not p111) (not p79) p98) (or p106 p9 p66) (or (not p27) (not p104) (not p101)) (or (not p105) p33 p67) (or (not p29) p26 p118) (or (not p33) (not p26) (not p112)) (or (not p102) (not p64) (not p76)) (or (not p51) p57 p115) (or (not p65) p73 p39) (or (not p72) (not p118) p117) (or p114 p1 (not p40)) (or (not p11) (not p47) p98) (or p41 p6 (not p96)) (or (not p29) p69 (not p98)) (or p7 (not p54) (not p56)) (or p107 p58 p69) (or p57 (not p77) (not p12)) (or p47 (not p70) (not p100)) (or (not p96) p66 p94) (or p27 p113 p85) (or p52 p112 p10) (or (not p31) p101 p106) (or (not p105) (not p59) p9) (or p24 p92 p25) (or (not p96) p71 p55) (or p12 (not p0) p76))
)
(check-sat)
(get-model)
